p wcnf 192 96 97 
1 -178 162 0 
1 -107 6 0 
1 69 6 0 
1 91 -172 0 
1 66 -149 0 
1 -2 -35 0 
1 -164 16 0 
1 39 43 0 
1 142 -152 0 
1 -86 121 0 
1 48 -113 0 
1 -62 -33 0 
1 -31 -124 0 
1 -151 2 0 
1 191 154 0 
1 -109 83 0 
1 75 -84 0 
1 -40 -122 0 
1 85 79 0 
1 135 -188 0 
1 162 -81 0 
1 -153 21 0 
1 -121 34 0 
1 104 42 0 
1 98 96 0 
1 166 187 0 
1 84 68 0 
1 -147 171 0 
1 -26 -66 0 
1 190 -113 0 
1 -125 -155 0 
1 -113 -40 0 
1 -165 68 0 
1 59 -155 0 
1 138 -7 0 
1 -91 174 0 
1 -7 -32 0 
1 -154 -74 0 
1 29 12 0 
1 11 192 0 
1 -70 148 0 
1 139 40 0 
1 135 -113 0 
1 192 -191 0 
1 -184 30 0 
1 -29 -42 0 
1 189 152 0 
1 -99 136 0 
1 165 -33 0 
1 -95 124 0 
1 -110 4 0 
1 -135 30 0 
1 -51 16 0 
1 150 117 0 
1 -169 3 0 
1 -54 -3 0 
1 103 -49 0 
1 -137 -62 0 
1 -92 -13 0 
1 192 -116 0 
1 62 155 0 
1 -165 -88 0 
1 86 -114 0 
1 181 93 0 
1 -160 107 0 
1 159 -184 0 
1 -65 42 0 
1 -165 152 0 
1 -143 -24 0 
1 -109 -191 0 
1 5 175 0 
1 -177 -38 0 
1 94 -173 0 
1 75 183 0 
1 -32 -24 0 
1 138 -124 0 
1 -48 -118 0 
1 26 55 0 
1 16 -15 0 
1 -86 185 0 
1 135 -127 0 
1 -21 35 0 
1 -146 182 0 
1 192 -102 0 
1 -100 -79 0 
1 -103 189 0 
1 34 -110 0 
1 -45 18 0 
1 17 -112 0 
1 -180 -106 0 
1 -93 125 0 
1 -8 -47 0 
1 -171 20 0 
1 117 80 0 
1 -112 79 0 
1 -45 168 0 
